(set-logic HORN)
(declare-datatypes ((Nat_0 0)) (((Z_0 ) (S_0 (projS_0 Nat_0)))))
(declare-fun diseqNat_0 (Nat_0 Nat_0) Bool)
(declare-fun x_0 (Nat_0 Nat_0 Nat_0) Bool)
(declare-fun x_3 (Nat_0 Nat_0 Nat_0) Bool)
(assert (forall ((x_21 Nat_0))
	(diseqNat_0 Z_0 (S_0 x_21))))
(assert (forall ((x_22 Nat_0))
	(diseqNat_0 (S_0 x_22) Z_0)))
(assert (forall ((x_23 Nat_0) (x_24 Nat_0))
	(=> (diseqNat_0 x_23 x_24) (diseqNat_0 (S_0 x_23) (S_0 x_24)))))
(assert (forall ((x_5 Nat_0) (x_2 Nat_0) (z_1 Nat_0))
	(=> (x_0 x_5 z_1 x_2) (x_0 x_5 (S_0 z_1) (S_0 x_2)))))
(assert (forall ((z_1 Nat_0))
	(x_0 (S_0 z_1) (S_0 z_1) Z_0)))
(assert (forall ((y_0 Nat_0))
	(x_0 Z_0 Z_0 y_0)))
(assert (forall ((x_10 Nat_0) (z_2 Nat_0) (y_1 Nat_0))
	(=> (x_3 x_10 z_2 y_1) (x_3 (S_0 x_10) (S_0 z_2) y_1))))
(assert (forall ((x_11 Nat_0))
	(x_3 x_11 Z_0 x_11)))
(assert (forall ((x_12 Nat_0) (x_13 Nat_0) (x_14 Nat_0) (x_15 Nat_0) (k_0 Nat_0) (m_0 Nat_0) (n_0 Nat_0))
	(=> (and (diseqNat_0 x_14 x_15) (x_3 x_12 k_0 m_0) (x_3 x_13 k_0 n_0) (x_0 x_14 x_12 x_13) (x_0 x_15 m_0 n_0)) false)))
(check-sat)
(get-model)
